c Random generated cnf formula, satisfiable: false
p cnf 10 50
-1 -2 8 0
-8 5 -3 0
-5 1 -4 0
8 4 -9 0
6 -10 1 0
-8 7 -1 0
-10 7 -2 0
3 -9 -5 0
-2 -8 10 0
-2 6 -8 0
-8 9 2 0
1 -10 8 0
9 3 -7 0
-9 -4 1 0
-1 4 3 0
-8 10 9 0
-6 8 2 0
8 -2 -4 0
-3 10 1 0
3 -2 -7 0
-8 -9 2 0
4 5 -9 0
8 -7 5 0
-3 7 -10 0
-10 -2 3 0
-1 8 -5 0
9 -2 7 0
9 -3 1 0
-1 9 -7 0
-9 -2 5 0
6 -7 9 0
-1 -8 -3 0
-4 -9 -6 0
-1 9 8 0
6 5 -10 0
2 -3 -5 0
-8 -10 1 0
5 -4 -3 0
6 -7 -10 0
9 -4 7 0
6 10 -1 0
-2 1 -7 0
1 -4 -2 0
5 2 -1 0
-5 6 -3 0
-4 2 -1 0
-8 10 1 0
-4 1 -3 0
-3 7 -6 0
2 1 3 0
